(set-logic HORN)
(declare-fun inv ((_ BitVec 64) (_ BitVec 64) (_ BitVec 64) (_ BitVec 64) (_ BitVec 64) (_ BitVec 64) ) Bool)
(assert (forall ((y (_ BitVec 64)) (z (_ BitVec 64)) (c (_ BitVec 64)) (x1 (_ BitVec 64)) (x2 (_ BitVec 64)) (x3 (_ BitVec 64))) 
       (=> ( and ( = c (_ bv0 64) ) ( bvuge y (_ bv0 64) ) ( bvuge (_ bv127 64) y ) ( = z ( bvmul (_ bv36 64) y ) ) ) (inv y z c x1 x2 x3))))
(assert (forall ((y (_ BitVec 64)) (z (_ BitVec 64)) (c (_ BitVec 64)) (x1 (_ BitVec 64)) (x2 (_ BitVec 64)) (x3 (_ BitVec 64)) (y! (_ BitVec 64)) (z! (_ BitVec 64)) (c! (_ BitVec 64)) (x1! (_ BitVec 64)) (x2! (_ BitVec 64)) (x3! (_ BitVec 64))) 
       (=> (and (inv y z c x1 x2 x3) ( and ( bvult c (_ bv36 64) ) ( = z! ( bvadd z (_ bv1 64) ) ) ( = c! ( bvadd c (_ bv1 64) ) ) ( = y! y ) )) (inv y! z! c! x1! x2! x3!))))
(assert (forall ((y (_ BitVec 64)) (z (_ BitVec 64)) (c (_ BitVec 64)) (x1 (_ BitVec 64)) (x2 (_ BitVec 64)) (x3 (_ BitVec 64))) 
       (=> (inv y z c x1 x2 x3) ( not ( and ( bvult c (_ bv36 64) ) ( or ( bvult z (_ bv0 64) ) ( bvuge z (_ bv4608 64) ) ) ) ))))
(check-sat)
